c "random instance"
p edges 150 4518
e 1 3
e 1 7
e 1 9
e 1 10
e 1 11
e 1 15
e 1 16
e 1 22
e 1 23
e 1 26
e 1 27
e 1 28
e 1 30
e 1 31
e 1 33
e 1 34
e 1 38
e 1 40
e 1 44
e 1 46
e 1 47
e 1 52
e 1 53
e 1 54
e 1 56
e 1 57
e 1 59
e 1 65
e 1 67
e 1 69
e 1 79
e 1 80
e 1 81
e 1 82
e 1 84
e 1 85
e 1 91
e 1 94
e 1 95
e 1 97
e 1 100
e 1 105
e 1 106
e 1 107
e 1 108
e 1 110
e 1 111
e 1 112
e 1 114
e 1 115
e 1 117
e 1 118
e 1 119
e 1 120
e 1 125
e 1 127
e 1 131
e 1 133
e 1 134
e 1 136
e 1 138
e 1 140
e 1 149
e 2 3
e 2 7
e 2 11
e 2 13
e 2 14
e 2 15
e 2 17
e 2 18
e 2 19
e 2 22
e 2 23
e 2 25
e 2 26
e 2 29
e 2 30
e 2 31
e 2 32
e 2 34
e 2 38
e 2 49
e 2 51
e 2 52
e 2 53
e 2 54
e 2 56
e 2 61
e 2 65
e 2 66
e 2 67
e 2 71
e 2 73
e 2 75
e 2 83
e 2 86
e 2 88
e 2 91
e 2 92
e 2 95
e 2 100
e 2 101
e 2 102
e 2 103
e 2 105
e 2 111
e 2 114
e 2 115
e 2 117
e 2 120
e 2 123
e 2 124
e 2 129
e 2 132
e 2 134
e 2 135
e 2 136
e 2 139
e 2 140
e 2 141
e 2 142
e 2 143
e 2 144
e 2 145
e 2 146
e 2 149
e 3 5
e 3 7
e 3 8
e 3 9
e 3 15
e 3 21
e 3 22
e 3 25
e 3 28
e 3 29
e 3 33
e 3 35
e 3 36
e 3 37
e 3 38
e 3 42
e 3 43
e 3 46
e 3 50
e 3 52
e 3 53
e 3 60
e 3 61
e 3 63
e 3 65
e 3 66
e 3 67
e 3 71
e 3 72
e 3 76
e 3 79
e 3 80
e 3 87
e 3 89
e 3 90
e 3 91
e 3 93
e 3 94
e 3 95
e 3 98
e 3 99
e 3 100
e 3 102
e 3 103
e 3 104
e 3 105
e 3 116
e 3 119
e 3 120
e 3 122
e 3 123
e 3 126
e 3 127
e 3 128
e 3 129
e 3 133
e 3 137
e 3 140
e 3 143
e 3 146
e 3 150
e 4 6
e 4 7
e 4 8
e 4 9
e 4 10
e 4 11
e 4 13
e 4 15
e 4 16
e 4 18
e 4 21
e 4 24
e 4 30
e 4 34
e 4 35
e 4 37
e 4 41
e 4 44
e 4 47
e 4 48
e 4 49
e 4 52
e 4 53
e 4 55
e 4 56
e 4 58
e 4 60
e 4 63
e 4 65
e 4 66
e 4 67
e 4 68
e 4 69
e 4 72
e 4 76
e 4 78
e 4 82
e 4 83
e 4 85
e 4 86
e 4 88
e 4 90
e 4 91
e 4 92
e 4 103
e 4 105
e 4 107
e 4 108
e 4 109
e 4 110
e 4 112
e 4 114
e 4 117
e 4 123
e 4 124
e 4 127
e 4 128
e 4 129
e 4 130
e 4 131
e 4 132
e 4 134
e 4 135
e 4 136
e 4 141
e 4 142
e 4 144
e 4 146
e 4 147
e 5 7
e 5 10
e 5 13
e 5 17
e 5 19
e 5 22
e 5 26
e 5 31
e 5 32
e 5 34
e 5 35
e 5 37
e 5 39
e 5 41
e 5 43
e 5 44
e 5 48
e 5 49
e 5 50
e 5 53
e 5 56
e 5 57
e 5 58
e 5 61
e 5 63
e 5 68
e 5 70
e 5 71
e 5 79
e 5 80
e 5 82
e 5 85
e 5 86
e 5 88
e 5 89
e 5 92
e 5 96
e 5 100
e 5 103
e 5 107
e 5 120
e 5 121
e 5 122
e 5 124
e 5 125
e 5 126
e 5 130
e 5 132
e 5 133
e 5 134
e 5 135
e 5 140
e 5 141
e 5 142
e 5 144
e 5 146
e 6 10
e 6 12
e 6 13
e 6 14
e 6 21
e 6 24
e 6 25
e 6 26
e 6 28
e 6 30
e 6 34
e 6 37
e 6 38
e 6 39
e 6 40
e 6 42
e 6 43
e 6 44
e 6 46
e 6 48
e 6 50
e 6 51
e 6 52
e 6 53
e 6 54
e 6 58
e 6 59
e 6 60
e 6 61
e 6 62
e 6 63
e 6 64
e 6 67
e 6 70
e 6 73
e 6 74
e 6 76
e 6 77
e 6 79
e 6 80
e 6 81
e 6 83
e 6 84
e 6 86
e 6 91
e 6 92
e 6 93
e 6 94
e 6 95
e 6 96
e 6 98
e 6 104
e 6 105
e 6 109
e 6 110
e 6 113
e 6 118
e 6 121
e 6 123
e 6 129
e 6 137
e 6 142
e 6 143
e 6 145
e 6 146
e 6 147
e 6 148
e 7 9
e 7 11
e 7 12
e 7 13
e 7 14
e 7 15
e 7 17
e 7 18
e 7 19
e 7 24
e 7 27
e 7 28
e 7 31
e 7 32
e 7 37
e 7 41
e 7 43
e 7 45
e 7 46
e 7 52
e 7 53
e 7 54
e 7 55
e 7 56
e 7 57
e 7 58
e 7 64
e 7 68
e 7 72
e 7 75
e 7 80
e 7 84
e 7 87
e 7 88
e 7 91
e 7 94
e 7 95
e 7 98
e 7 99
e 7 100
e 7 103
e 7 105
e 7 108
e 7 109
e 7 111
e 7 112
e 7 121
e 7 122
e 7 123
e 7 125
e 7 128
e 7 129
e 7 130
e 7 131
e 7 134
e 7 140
e 7 143
e 7 145
e 7 148
e 7 150
e 8 11
e 8 12
e 8 13
e 8 14
e 8 16
e 8 20
e 8 22
e 8 23
e 8 24
e 8 25
e 8 26
e 8 28
e 8 29
e 8 32
e 8 33
e 8 37
e 8 41
e 8 43
e 8 44
e 8 52
e 8 53
e 8 54
e 8 55
e 8 56
e 8 57
e 8 62
e 8 63
e 8 70
e 8 71
e 8 72
e 8 73
e 8 75
e 8 78
e 8 79
e 8 80
e 8 84
e 8 85
e 8 86
e 8 90
e 8 91
e 8 92
e 8 98
e 8 100
e 8 101
e 8 106
e 8 107
e 8 108
e 8 109
e 8 111
e 8 112
e 8 114
e 8 116
e 8 118
e 8 121
e 8 124
e 8 126
e 8 127
e 8 130
e 8 132
e 8 133
e 8 136
e 8 137
e 8 138
e 8 139
e 8 142
e 8 145
e 8 146
e 8 147
e 8 149
e 8 150
e 9 10
e 9 12
e 9 13
e 9 14
e 9 15
e 9 25
e 9 26
e 9 27
e 9 28
e 9 29
e 9 30
e 9 31
e 9 41
e 9 42
e 9 44
e 9 47
e 9 49
e 9 53
e 9 56
e 9 59
e 9 60
e 9 61
e 9 62
e 9 63
e 9 64
e 9 66
e 9 67
e 9 70
e 9 75
e 9 80
e 9 86
e 9 87
e 9 92
e 9 93
e 9 100
e 9 101
e 9 106
e 9 110
e 9 111
e 9 112
e 9 113
e 9 114
e 9 115
e 9 116
e 9 117
e 9 118
e 9 119
e 9 122
e 9 123
e 9 124
e 9 128
e 9 129
e 9 130
e 9 135
e 9 137
e 9 145
e 9 147
e 9 150
e 10 14
e 10 19
e 10 20
e 10 23
e 10 26
e 10 30
e 10 33
e 10 39
e 10 40
e 10 44
e 10 45
e 10 46
e 10 48
e 10 53
e 10 60
e 10 61
e 10 64
e 10 66
e 10 71
e 10 72
e 10 73
e 10 76
e 10 81
e 10 83
e 10 86
e 10 87
e 10 88
e 10 90
e 10 92
e 10 96
e 10 98
e 10 99
e 10 100
e 10 102
e 10 103
e 10 105
e 10 106
e 10 107
e 10 109
e 10 110
e 10 112
e 10 114
e 10 115
e 10 117
e 10 119
e 10 120
e 10 125
e 10 131
e 10 133
e 10 134
e 10 136
e 10 137
e 10 138
e 10 145
e 10 146
e 10 149
e 11 13
e 11 15
e 11 16
e 11 18
e 11 20
e 11 21
e 11 24
e 11 28
e 11 29
e 11 30
e 11 31
e 11 33
e 11 35
e 11 36
e 11 40
e 11 41
e 11 42
e 11 45
e 11 46
e 11 48
e 11 53
e 11 56
e 11 57
e 11 58
e 11 60
e 11 65
e 11 68
e 11 69
e 11 72
e 11 76
e 11 81
e 11 87
e 11 88
e 11 90
e 11 92
e 11 98
e 11 102
e 11 109
e 11 110
e 11 117
e 11 118
e 11 122
e 11 127
e 11 129
e 11 133
e 11 140
e 11 148
e 12 16
e 12 19
e 12 25
e 12 26
e 12 28
e 12 30
e 12 33
e 12 35
e 12 36
e 12 37
e 12 38
e 12 41
e 12 42
e 12 43
e 12 44
e 12 50
e 12 54
e 12 56
e 12 57
e 12 62
e 12 65
e 12 67
e 12 68
e 12 71
e 12 77
e 12 79
e 12 80
e 12 82
e 12 87
e 12 95
e 12 96
e 12 99
e 12 100
e 12 101
e 12 104
e 12 107
e 12 108
e 12 109
e 12 113
e 12 117
e 12 118
e 12 120
e 12 127
e 12 128
e 12 130
e 12 134
e 12 141
e 12 148
e 12 149
e 13 16
e 13 17
e 13 21
e 13 24
e 13 25
e 13 32
e 13 35
e 13 38
e 13 41
e 13 42
e 13 44
e 13 47
e 13 50
e 13 51
e 13 53
e 13 60
e 13 61
e 13 62
e 13 64
e 13 65
e 13 71
e 13 73
e 13 75
e 13 77
e 13 81
e 13 83
e 13 84
e 13 85
e 13 89
e 13 91
e 13 93
e 13 99
e 13 102
e 13 105
e 13 107
e 13 110
e 13 113
e 13 116
e 13 120
e 13 122
e 13 124
e 13 126
e 13 131
e 13 132
e 13 133
e 13 134
e 13 136
e 13 139
e 13 140
e 13 144
e 13 145
e 13 148
e 13 150
e 14 19
e 14 20
e 14 22
e 14 23
e 14 27
e 14 28
e 14 34
e 14 36
e 14 39
e 14 43
e 14 44
e 14 46
e 14 47
e 14 51
e 14 56
e 14 64
e 14 66
e 14 70
e 14 71
e 14 72
e 14 73
e 14 74
e 14 75
e 14 78
e 14 79
e 14 80
e 14 83
e 14 86
e 14 92
e 14 94
e 14 95
e 14 99
e 14 101
e 14 103
e 14 104
e 14 109
e 14 112
e 14 117
e 14 118
e 14 119
e 14 128
e 14 129
e 14 132
e 14 133
e 14 137
e 14 140
e 14 144
e 14 145
e 15 24
e 15 27
e 15 29
e 15 33
e 15 35
e 15 37
e 15 40
e 15 42
e 15 43
e 15 45
e 15 46
e 15 48
e 15 49
e 15 50
e 15 55
e 15 57
e 15 58
e 15 59
e 15 68
e 15 71
e 15 72
e 15 74
e 15 75
e 15 76
e 15 77
e 15 82
e 15 88
e 15 89
e 15 90
e 15 91
e 15 92
e 15 94
e 15 95
e 15 96
e 15 100
e 15 105
e 15 110
e 15 113
e 15 114
e 15 116
e 15 117
e 15 124
e 15 129
e 15 130
e 15 136
e 15 142
e 15 149
e 15 150
e 16 19
e 16 20
e 16 23
e 16 41
e 16 43
e 16 45
e 16 46
e 16 48
e 16 52
e 16 54
e 16 56
e 16 58
e 16 60
e 16 62
e 16 64
e 16 67
e 16 68
e 16 69
e 16 78
e 16 79
e 16 80
e 16 81
e 16 82
e 16 88
e 16 93
e 16 94
e 16 95
e 16 96
e 16 99
e 16 103
e 16 105
e 16 108
e 16 110
e 16 116
e 16 118
e 16 121
e 16 122
e 16 125
e 16 129
e 16 131
e 16 132
e 16 138
e 16 140
e 16 144
e 16 148
e 16 149
e 16 150
e 17 18
e 17 25
e 17 29
e 17 30
e 17 31
e 17 32
e 17 35
e 17 36
e 17 38
e 17 40
e 17 45
e 17 47
e 17 48
e 17 52
e 17 53
e 17 54
e 17 55
e 17 56
e 17 57
e 17 61
e 17 65
e 17 67
e 17 69
e 17 71
e 17 76
e 17 77
e 17 78
e 17 81
e 17 90
e 17 91
e 17 93
e 17 94
e 17 95
e 17 99
e 17 101
e 17 102
e 17 103
e 17 104
e 17 105
e 17 106
e 17 107
e 17 111
e 17 115
e 17 116
e 17 117
e 17 118
e 17 120
e 17 122
e 17 123
e 17 126
e 17 127
e 17 128
e 17 129
e 17 132
e 17 133
e 17 140
e 17 143
e 17 146
e 17 147
e 18 19
e 18 20
e 18 21
e 18 22
e 18 25
e 18 26
e 18 27
e 18 28
e 18 34
e 18 37
e 18 40
e 18 44
e 18 46
e 18 47
e 18 48
e 18 55
e 18 56
e 18 61
e 18 62
e 18 65
e 18 70
e 18 71
e 18 72
e 18 73
e 18 76
e 18 78
e 18 79
e 18 81
e 18 84
e 18 85
e 18 89
e 18 90
e 18 91
e 18 94
e 18 95
e 18 98
e 18 102
e 18 104
e 18 105
e 18 107
e 18 110
e 18 112
e 18 114
e 18 115
e 18 117
e 18 119
e 18 125
e 18 128
e 18 129
e 18 130
e 18 131
e 18 133
e 18 138
e 18 139
e 18 142
e 18 145
e 18 149
e 18 150
e 19 26
e 19 27
e 19 32
e 19 35
e 19 42
e 19 43
e 19 46
e 19 47
e 19 50
e 19 51
e 19 52
e 19 54
e 19 57
e 19 58
e 19 59
e 19 60
e 19 62
e 19 65
e 19 67
e 19 85
e 19 86
e 19 88
e 19 90
e 19 92
e 19 95
e 19 97
e 19 98
e 19 99
e 19 100
e 19 104
e 19 105
e 19 106
e 19 107
e 19 108
e 19 112
e 19 116
e 19 118
e 19 122
e 19 123
e 19 124
e 19 128
e 19 132
e 19 134
e 19 136
e 19 139
e 19 141
e 19 148
e 19 149
e 20 21
e 20 28
e 20 29
e 20 30
e 20 34
e 20 40
e 20 42
e 20 43
e 20 45
e 20 46
e 20 48
e 20 51
e 20 53
e 20 54
e 20 55
e 20 58
e 20 61
e 20 62
e 20 64
e 20 69
e 20 72
e 20 76
e 20 81
e 20 83
e 20 85
e 20 88
e 20 89
e 20 93
e 20 94
e 20 95
e 20 97
e 20 99
e 20 102
e 20 111
e 20 112
e 20 116
e 20 118
e 20 119
e 20 121
e 20 122
e 20 128
e 20 129
e 20 130
e 20 136
e 20 138
e 20 139
e 20 142
e 20 143
e 20 146
e 20 149
e 20 150
e 21 25
e 21 26
e 21 27
e 21 28
e 21 32
e 21 33
e 21 34
e 21 35
e 21 38
e 21 39
e 21 41
e 21 43
e 21 44
e 21 46
e 21 48
e 21 50
e 21 53
e 21 54
e 21 60
e 21 61
e 21 62
e 21 67
e 21 68
e 21 70
e 21 72
e 21 74
e 21 75
e 21 76
e 21 80
e 21 82
e 21 83
e 21 84
e 21 86
e 21 89
e 21 94
e 21 95
e 21 96
e 21 97
e 21 99
e 21 100
e 21 107
e 21 109
e 21 110
e 21 111
e 21 114
e 21 115
e 21 117
e 21 120
e 21 121
e 21 123
e 21 125
e 21 128
e 21 129
e 21 130
e 21 139
e 21 140
e 21 141
e 21 144
e 21 146
e 22 32
e 22 36
e 22 38
e 22 40
e 22 43
e 22 44
e 22 45
e 22 46
e 22 52
e 22 53
e 22 54
e 22 55
e 22 56
e 22 59
e 22 60
e 22 62
e 22 63
e 22 66
e 22 67
e 22 68
e 22 69
e 22 75
e 22 76
e 22 81
e 22 82
e 22 83
e 22 84
e 22 87
e 22 89
e 22 93
e 22 96
e 22 100
e 22 105
e 22 113
e 22 116
e 22 120
e 22 124
e 22 125
e 22 126
e 22 136
e 22 139
e 22 146
e 22 148
e 22 150
e 23 25
e 23 34
e 23 35
e 23 44
e 23 48
e 23 51
e 23 54
e 23 59
e 23 60
e 23 61
e 23 63
e 23 64
e 23 68
e 23 70
e 23 72
e 23 73
e 23 76
e 23 78
e 23 79
e 23 82
e 23 84
e 23 90
e 23 91
e 23 92
e 23 97
e 23 99
e 23 100
e 23 102
e 23 103
e 23 106
e 23 108
e 23 109
e 23 110
e 23 112
e 23 113
e 23 116
e 23 118
e 23 119
e 23 121
e 23 124
e 23 127
e 23 130
e 23 133
e 23 134
e 23 136
e 23 140
e 23 142
e 23 143
e 23 144
e 23 146
e 23 147
e 23 148
e 24 25
e 24 29
e 24 34
e 24 39
e 24 40
e 24 41
e 24 49
e 24 54
e 24 55
e 24 62
e 24 70
e 24 76
e 24 77
e 24 80
e 24 81
e 24 82
e 24 83
e 24 84
e 24 88
e 24 89
e 24 91
e 24 102
e 24 109
e 24 110
e 24 112
e 24 113
e 24 118
e 24 119
e 24 120
e 24 122
e 24 123
e 24 124
e 24 127
e 24 133
e 24 137
e 24 143
e 25 28
e 25 33
e 25 35
e 25 40
e 25 44
e 25 46
e 25 49
e 25 50
e 25 51
e 25 52
e 25 53
e 25 61
e 25 65
e 25 68
e 25 72
e 25 73
e 25 74
e 25 75
e 25 76
e 25 79
e 25 85
e 25 87
e 25 88
e 25 89
e 25 90
e 25 92
e 25 94
e 25 96
e 25 97
e 25 101
e 25 102
e 25 107
e 25 108
e 25 109
e 25 117
e 25 118
e 25 120
e 25 122
e 25 128
e 25 133
e 25 138
e 25 141
e 25 143
e 25 145
e 25 147
e 25 148
e 25 149
e 26 27
e 26 32
e 26 39
e 26 41
e 26 42
e 26 46
e 26 48
e 26 51
e 26 52
e 26 54
e 26 57
e 26 61
e 26 63
e 26 64
e 26 65
e 26 67
e 26 68
e 26 72
e 26 80
e 26 92
e 26 99
e 26 101
e 26 103
e 26 111
e 26 113
e 26 114
e 26 115
e 26 116
e 26 117
e 26 122
e 26 123
e 26 125
e 26 130
e 26 133
e 26 134
e 26 136
e 26 142
e 26 145
e 26 146
e 26 147
e 26 150
e 27 30
e 27 31
e 27 34
e 27 35
e 27 36
e 27 37
e 27 40
e 27 41
e 27 45
e 27 46
e 27 47
e 27 48
e 27 52
e 27 56
e 27 61
e 27 63
e 27 64
e 27 65
e 27 74
e 27 75
e 27 76
e 27 79
e 27 82
e 27 83
e 27 85
e 27 87
e 27 88
e 27 90
e 27 91
e 27 92
e 27 94
e 27 95
e 27 97
e 27 98
e 27 99
e 27 103
e 27 106
e 27 107
e 27 108
e 27 109
e 27 110
e 27 111
e 27 112
e 27 114
e 27 120
e 27 122
e 27 123
e 27 124
e 27 125
e 27 126
e 27 129
e 27 130
e 27 131
e 27 134
e 27 135
e 27 136
e 27 139
e 27 141
e 27 143
e 27 144
e 27 146
e 27 147
e 27 148
e 27 149
e 27 150
e 28 30
e 28 32
e 28 34
e 28 35
e 28 36
e 28 39
e 28 40
e 28 42
e 28 43
e 28 47
e 28 48
e 28 49
e 28 52
e 28 55
e 28 57
e 28 60
e 28 62
e 28 67
e 28 69
e 28 70
e 28 74
e 28 76
e 28 77
e 28 80
e 28 81
e 28 82
e 28 89
e 28 94
e 28 95
e 28 96
e 28 97
e 28 99
e 28 106
e 28 110
e 28 112
e 28 113
e 28 114
e 28 116
e 28 117
e 28 120
e 28 121
e 28 123
e 28 124
e 28 126
e 28 128
e 28 132
e 28 134
e 28 136
e 28 137
e 28 138
e 28 139
e 28 143
e 28 145
e 28 147
e 29 30
e 29 38
e 29 44
e 29 45
e 29 46
e 29 54
e 29 59
e 29 60
e 29 61
e 29 62
e 29 63
e 29 68
e 29 70
e 29 71
e 29 72
e 29 73
e 29 74
e 29 78
e 29 87
e 29 88
e 29 89
e 29 92
e 29 95
e 29 97
e 29 102
e 29 103
e 29 104
e 29 105
e 29 107
e 29 111
e 29 115
e 29 117
e 29 118
e 29 124
e 29 127
e 29 128
e 29 130
e 29 131
e 29 134
e 29 138
e 29 139
e 29 141
e 29 144
e 29 147
e 29 149
e 29 150
e 30 31
e 30 36
e 30 39
e 30 40
e 30 45
e 30 49
e 30 50
e 30 53
e 30 54
e 30 57
e 30 59
e 30 62
e 30 63
e 30 69
e 30 73
e 30 76
e 30 83
e 30 84
e 30 87
e 30 88
e 30 91
e 30 97
e 30 100
e 30 102
e 30 104
e 30 105
e 30 108
e 30 110
e 30 112
e 30 113
e 30 116
e 30 122
e 30 123
e 30 124
e 30 126
e 30 127
e 30 129
e 30 131
e 30 132
e 30 133
e 30 134
e 30 135
e 30 136
e 30 137
e 30 138
e 30 141
e 30 147
e 31 32
e 31 33
e 31 34
e 31 39
e 31 42
e 31 51
e 31 54
e 31 55
e 31 56
e 31 60
e 31 62
e 31 63
e 31 65
e 31 67
e 31 71
e 31 72
e 31 75
e 31 76
e 31 77
e 31 79
e 31 80
e 31 82
e 31 84
e 31 89
e 31 97
e 31 98
e 31 100
e 31 101
e 31 103
e 31 104
e 31 105
e 31 106
e 31 112
e 31 115
e 31 120
e 31 122
e 31 124
e 31 125
e 31 126
e 31 131
e 31 136
e 31 139
e 31 140
e 31 141
e 31 144
e 31 150
e 32 34
e 32 36
e 32 37
e 32 40
e 32 41
e 32 42
e 32 48
e 32 49
e 32 50
e 32 53
e 32 54
e 32 56
e 32 59
e 32 62
e 32 63
e 32 64
e 32 69
e 32 70
e 32 74
e 32 78
e 32 80
e 32 87
e 32 89
e 32 90
e 32 91
e 32 94
e 32 97
e 32 98
e 32 101
e 32 105
e 32 109
e 32 110
e 32 112
e 32 114
e 32 115
e 32 118
e 32 119
e 32 120
e 32 123
e 32 124
e 32 127
e 32 129
e 32 132
e 32 138
e 32 141
e 32 143
e 32 144
e 32 145
e 32 146
e 33 36
e 33 37
e 33 38
e 33 43
e 33 46
e 33 49
e 33 51
e 33 52
e 33 54
e 33 56
e 33 60
e 33 61
e 33 62
e 33 63
e 33 64
e 33 65
e 33 66
e 33 71
e 33 74
e 33 76
e 33 77
e 33 78
e 33 79
e 33 81
e 33 83
e 33 86
e 33 91
e 33 93
e 33 96
e 33 97
e 33 100
e 33 102
e 33 103
e 33 105
e 33 107
e 33 109
e 33 111
e 33 112
e 33 114
e 33 115
e 33 118
e 33 121
e 33 123
e 33 126
e 33 127
e 33 128
e 33 129
e 33 132
e 33 133
e 33 134
e 33 136
e 33 138
e 33 140
e 33 142
e 33 149
e 34 36
e 34 40
e 34 42
e 34 43
e 34 47
e 34 48
e 34 49
e 34 50
e 34 51
e 34 56
e 34 60
e 34 61
e 34 66
e 34 69
e 34 74
e 34 75
e 34 80
e 34 82
e 34 83
e 34 84
e 34 93
e 34 95
e 34 100
e 34 105
e 34 107
e 34 110
e 34 111
e 34 113
e 34 115
e 34 117
e 34 120
e 34 124
e 34 125
e 34 130
e 34 131
e 34 135
e 34 136
e 34 138
e 34 144
e 34 149
e 35 37
e 35 39
e 35 40
e 35 42
e 35 46
e 35 47
e 35 49
e 35 50
e 35 55
e 35 57
e 35 58
e 35 59
e 35 60
e 35 63
e 35 64
e 35 65
e 35 67
e 35 71
e 35 72
e 35 74
e 35 78
e 35 80
e 35 82
e 35 83
e 35 84
e 35 85
e 35 86
e 35 91
e 35 92
e 35 94
e 35 97
e 35 101
e 35 102
e 35 103
e 35 104
e 35 109
e 35 113
e 35 114
e 35 115
e 35 118
e 35 123
e 35 124
e 35 127
e 35 128
e 35 140
e 35 144
e 35 146
e 35 147
e 35 148
e 35 150
e 36 37
e 36 40
e 36 43
e 36 45
e 36 46
e 36 47
e 36 50
e 36 51
e 36 52
e 36 57
e 36 58
e 36 59
e 36 61
e 36 62
e 36 73
e 36 76
e 36 79
e 36 80
e 36 81
e 36 82
e 36 85
e 36 89
e 36 91
e 36 95
e 36 101
e 36 102
e 36 108
e 36 115
e 36 117
e 36 121
e 36 122
e 36 124
e 36 126
e 36 127
e 36 128
e 36 132
e 36 133
e 36 138
e 36 139
e 36 141
e 36 143
e 36 148
e 37 39
e 37 41
e 37 43
e 37 46
e 37 50
e 37 51
e 37 52
e 37 53
e 37 54
e 37 58
e 37 60
e 37 61
e 37 75
e 37 77
e 37 78
e 37 85
e 37 86
e 37 87
e 37 90
e 37 92
e 37 94
e 37 100
e 37 101
e 37 102
e 37 103
e 37 104
e 37 109
e 37 110
e 37 112
e 37 125
e 37 126
e 37 129
e 37 134
e 37 139
e 37 142
e 37 147
e 37 148
e 38 39
e 38 42
e 38 43
e 38 51
e 38 54
e 38 61
e 38 62
e 38 67
e 38 69
e 38 70
e 38 75
e 38 78
e 38 82
e 38 85
e 38 91
e 38 92
e 38 99
e 38 107
e 38 108
e 38 113
e 38 114
e 38 115
e 38 117
e 38 120
e 38 121
e 38 123
e 38 127
e 38 129
e 38 130
e 38 132
e 38 133
e 38 134
e 38 136
e 38 137
e 38 138
e 38 139
e 38 143
e 38 146
e 38 149
e 38 150
e 39 40
e 39 42
e 39 43
e 39 48
e 39 53
e 39 54
e 39 59
e 39 66
e 39 69
e 39 72
e 39 74
e 39 75
e 39 76
e 39 78
e 39 79
e 39 80
e 39 81
e 39 82
e 39 85
e 39 88
e 39 89
e 39 90
e 39 91
e 39 92
e 39 95
e 39 97
e 39 98
e 39 101
e 39 102
e 39 105
e 39 107
e 39 110
e 39 114
e 39 119
e 39 120
e 39 124
e 39 126
e 39 133
e 39 140
e 39 141
e 39 142
e 39 143
e 39 146
e 39 147
e 39 149
e 40 41
e 40 43
e 40 45
e 40 47
e 40 50
e 40 52
e 40 56
e 40 62
e 40 65
e 40 66
e 40 73
e 40 80
e 40 81
e 40 82
e 40 83
e 40 85
e 40 86
e 40 87
e 40 88
e 40 89
e 40 90
e 40 91
e 40 94
e 40 95
e 40 105
e 40 109
e 40 114
e 40 115
e 40 120
e 40 121
e 40 122
e 40 123
e 40 125
e 40 130
e 40 135
e 40 136
e 40 138
e 40 139
e 40 143
e 40 144
e 40 145
e 41 46
e 41 47
e 41 49
e 41 51
e 41 53
e 41 54
e 41 64
e 41 67
e 41 69
e 41 77
e 41 78
e 41 79
e 41 84
e 41 85
e 41 88
e 41 90
e 41 91
e 41 92
e 41 93
e 41 94
e 41 100
e 41 101
e 41 102
e 41 107
e 41 109
e 41 113
e 41 114
e 41 115
e 41 116
e 41 117
e 41 118
e 41 120
e 41 125
e 41 127
e 41 128
e 41 133
e 41 135
e 41 137
e 41 138
e 41 139
e 41 144
e 41 145
e 41 148
e 41 150
e 42 43
e 42 44
e 42 45
e 42 46
e 42 49
e 42 50
e 42 51
e 42 52
e 42 54
e 42 55
e 42 60
e 42 61
e 42 62
e 42 64
e 42 69
e 42 72
e 42 73
e 42 74
e 42 75
e 42 77
e 42 79
e 42 80
e 42 81
e 42 82
e 42 83
e 42 85
e 42 87
e 42 90
e 42 92
e 42 93
e 42 95
e 42 97
e 42 99
e 42 101
e 42 103
e 42 104
e 42 108
e 42 110
e 42 112
e 42 113
e 42 114
e 42 115
e 42 117
e 42 119
e 42 124
e 42 125
e 42 127
e 42 131
e 42 132
e 42 133
e 42 135
e 42 139
e 42 140
e 42 141
e 42 144
e 42 145
e 42 147
e 42 149
e 42 150
e 43 52
e 43 53
e 43 57
e 43 61
e 43 64
e 43 66
e 43 68
e 43 69
e 43 71
e 43 72
e 43 73
e 43 77
e 43 80
e 43 82
e 43 84
e 43 86
e 43 87
e 43 90
e 43 98
e 43 99
e 43 100
e 43 101
e 43 102
e 43 107
e 43 109
e 43 110
e 43 112
e 43 116
e 43 118
e 43 119
e 43 121
e 43 122
e 43 123
e 43 124
e 43 125
e 43 132
e 43 135
e 43 139
e 43 142
e 43 143
e 43 146
e 43 147
e 43 149
e 44 45
e 44 47
e 44 48
e 44 54
e 44 55
e 44 58
e 44 60
e 44 66
e 44 70
e 44 73
e 44 78
e 44 82
e 44 84
e 44 90
e 44 92
e 44 93
e 44 96
e 44 98
e 44 101
e 44 102
e 44 103
e 44 110
e 44 113
e 44 116
e 44 121
e 44 126
e 44 134
e 44 135
e 44 139
e 44 140
e 44 141
e 44 144
e 44 147
e 44 148
e 44 150
e 45 47
e 45 52
e 45 55
e 45 56
e 45 57
e 45 59
e 45 61
e 45 63
e 45 68
e 45 71
e 45 82
e 45 84
e 45 85
e 45 88
e 45 92
e 45 96
e 45 97
e 45 100
e 45 103
e 45 107
e 45 108
e 45 109
e 45 110
e 45 112
e 45 117
e 45 118
e 45 119
e 45 122
e 45 124
e 45 126
e 45 129
e 45 130
e 45 132
e 45 133
e 45 135
e 45 136
e 45 139
e 45 141
e 45 143
e 45 148
e 45 150
e 46 49
e 46 50
e 46 52
e 46 53
e 46 54
e 46 55
e 46 58
e 46 59
e 46 60
e 46 63
e 46 65
e 46 72
e 46 73
e 46 74
e 46 77
e 46 79
e 46 83
e 46 84
e 46 85
e 46 86
e 46 87
e 46 94
e 46 95
e 46 96
e 46 97
e 46 98
e 46 102
e 46 103
e 46 104
e 46 105
e 46 106
e 46 110
e 46 111
e 46 113
e 46 115
e 46 118
e 46 119
e 46 122
e 46 127
e 46 128
e 46 132
e 46 134
e 46 137
e 46 139
e 46 140
e 46 141
e 46 143
e 46 144
e 46 147
e 46 149
e 46 150
e 47 48
e 47 50
e 47 51
e 47 53
e 47 56
e 47 60
e 47 68
e 47 72
e 47 73
e 47 74
e 47 75
e 47 77
e 47 80
e 47 82
e 47 87
e 47 88
e 47 90
e 47 93
e 47 94
e 47 95
e 47 98
e 47 100
e 47 107
e 47 108
e 47 110
e 47 111
e 47 112
e 47 114
e 47 119
e 47 120
e 47 123
e 47 125
e 47 128
e 47 131
e 47 132
e 47 134
e 47 136
e 47 138
e 47 140
e 47 142
e 47 143
e 47 145
e 47 146
e 47 147
e 47 148
e 48 50
e 48 53
e 48 55
e 48 57
e 48 60
e 48 62
e 48 64
e 48 67
e 48 70
e 48 72
e 48 73
e 48 75
e 48 78
e 48 80
e 48 81
e 48 86
e 48 88
e 48 89
e 48 91
e 48 92
e 48 97
e 48 98
e 48 99
e 48 100
e 48 105
e 48 107
e 48 109
e 48 110
e 48 112
e 48 117
e 48 123
e 48 124
e 48 125
e 48 127
e 48 130
e 48 132
e 48 135
e 48 136
e 48 137
e 48 140
e 48 141
e 48 143
e 48 147
e 48 148
e 49 51
e 49 55
e 49 56
e 49 59
e 49 60
e 49 61
e 49 66
e 49 68
e 49 74
e 49 75
e 49 76
e 49 77
e 49 86
e 49 87
e 49 92
e 49 94
e 49 96
e 49 98
e 49 104
e 49 105
e 49 106
e 49 107
e 49 110
e 49 111
e 49 115
e 49 117
e 49 120
e 49 124
e 49 125
e 49 129
e 49 130
e 49 132
e 49 133
e 49 135
e 49 139
e 49 140
e 49 142
e 49 146
e 49 147
e 49 149
e 49 150
e 50 55
e 50 57
e 50 58
e 50 59
e 50 61
e 50 62
e 50 64
e 50 71
e 50 72
e 50 73
e 50 74
e 50 76
e 50 83
e 50 87
e 50 89
e 50 91
e 50 92
e 50 94
e 50 95
e 50 96
e 50 97
e 50 101
e 50 102
e 50 106
e 50 109
e 50 111
e 50 112
e 50 116
e 50 122
e 50 124
e 50 125
e 50 127
e 50 128
e 50 130
e 50 132
e 50 133
e 50 137
e 50 139
e 50 140
e 50 142
e 50 145
e 50 146
e 50 147
e 50 150
e 51 53
e 51 54
e 51 59
e 51 63
e 51 67
e 51 68
e 51 74
e 51 75
e 51 76
e 51 78
e 51 82
e 51 83
e 51 84
e 51 85
e 51 87
e 51 90
e 51 93
e 51 96
e 51 97
e 51 102
e 51 103
e 51 105
e 51 107
e 51 109
e 51 110
e 51 111
e 51 112
e 51 114
e 51 115
e 51 120
e 51 121
e 51 122
e 51 124
e 51 125
e 51 126
e 51 127
e 51 129
e 51 130
e 51 132
e 51 135
e 51 146
e 51 148
e 51 150
e 52 58
e 52 59
e 52 63
e 52 66
e 52 68
e 52 70
e 52 71
e 52 73
e 52 76
e 52 78
e 52 79
e 52 80
e 52 81
e 52 85
e 52 86
e 52 87
e 52 88
e 52 91
e 52 92
e 52 95
e 52 97
e 52 101
e 52 105
e 52 106
e 52 107
e 52 109
e 52 110
e 52 114
e 52 117
e 52 120
e 52 123
e 52 125
e 52 126
e 52 131
e 52 133
e 52 134
e 52 136
e 52 138
e 52 140
e 52 144
e 52 145
e 52 146
e 52 147
e 52 149
e 53 57
e 53 58
e 53 60
e 53 63
e 53 64
e 53 67
e 53 68
e 53 70
e 53 74
e 53 83
e 53 85
e 53 86
e 53 90
e 53 92
e 53 96
e 53 98
e 53 101
e 53 103
e 53 109
e 53 111
e 53 112
e 53 114
e 53 115
e 53 116
e 53 120
e 53 124
e 53 126
e 53 127
e 53 129
e 53 130
e 53 133
e 53 134
e 53 136
e 53 139
e 53 140
e 53 142
e 53 143
e 53 144
e 53 147
e 53 148
e 53 150
e 54 56
e 54 57
e 54 62
e 54 63
e 54 65
e 54 66
e 54 67
e 54 68
e 54 73
e 54 74
e 54 79
e 54 80
e 54 81
e 54 83
e 54 84
e 54 85
e 54 88
e 54 90
e 54 91
e 54 93
e 54 94
e 54 95
e 54 98
e 54 100
e 54 101
e 54 102
e 54 103
e 54 104
e 54 109
e 54 111
e 54 112
e 54 114
e 54 116
e 54 122
e 54 123
e 54 125
e 54 128
e 54 131
e 54 132
e 54 133
e 54 135
e 54 137
e 54 140
e 54 141
e 54 142
e 54 144
e 54 145
e 54 147
e 55 56
e 55 57
e 55 60
e 55 61
e 55 64
e 55 65
e 55 71
e 55 72
e 55 74
e 55 75
e 55 78
e 55 80
e 55 81
e 55 82
e 55 91
e 55 92
e 55 96
e 55 97
e 55 98
e 55 99
e 55 101
e 55 105
e 55 108
e 55 111
e 55 113
e 55 117
e 55 118
e 55 120
e 55 125
e 55 126
e 55 130
e 55 131
e 55 142
e 55 144
e 55 145
e 55 146
e 55 147
e 55 148
e 55 150
e 56 59
e 56 60
e 56 61
e 56 64
e 56 66
e 56 68
e 56 69
e 56 70
e 56 72
e 56 73
e 56 76
e 56 77
e 56 80
e 56 86
e 56 94
e 56 95
e 56 96
e 56 97
e 56 98
e 56 101
e 56 102
e 56 104
e 56 107
e 56 109
e 56 111
e 56 113
e 56 114
e 56 117
e 56 119
e 56 120
e 56 122
e 56 125
e 56 128
e 56 129
e 56 133
e 56 135
e 56 142
e 56 144
e 56 145
e 57 58
e 57 66
e 57 67
e 57 69
e 57 75
e 57 81
e 57 84
e 57 89
e 57 92
e 57 95
e 57 96
e 57 100
e 57 103
e 57 107
e 57 110
e 57 113
e 57 114
e 57 116
e 57 117
e 57 118
e 57 120
e 57 121
e 57 122
e 57 123
e 57 124
e 57 129
e 57 130
e 57 131
e 57 132
e 57 142
e 57 143
e 57 144
e 57 145
e 57 146
e 57 147
e 58 59
e 58 61
e 58 62
e 58 67
e 58 68
e 58 69
e 58 70
e 58 75
e 58 76
e 58 77
e 58 78
e 58 79
e 58 83
e 58 84
e 58 86
e 58 87
e 58 88
e 58 91
e 58 92
e 58 93
e 58 94
e 58 97
e 58 100
e 58 101
e 58 103
e 58 104
e 58 107
e 58 111
e 58 112
e 58 115
e 58 118
e 58 120
e 58 125
e 58 127
e 58 129
e 58 133
e 58 134
e 58 135
e 58 138
e 58 139
e 58 141
e 58 143
e 58 144
e 58 145
e 58 146
e 58 150
e 59 60
e 59 61
e 59 63
e 59 64
e 59 65
e 59 66
e 59 67
e 59 71
e 59 73
e 59 75
e 59 78
e 59 81
e 59 83
e 59 84
e 59 92
e 59 95
e 59 98
e 59 99
e 59 101
e 59 112
e 59 114
e 59 117
e 59 118
e 59 121
e 59 122
e 59 124
e 59 126
e 59 129
e 59 131
e 59 132
e 59 135
e 59 141
e 59 143
e 59 146
e 59 147
e 60 68
e 60 79
e 60 80
e 60 84
e 60 86
e 60 87
e 60 92
e 60 95
e 60 98
e 60 102
e 60 103
e 60 108
e 60 111
e 60 112
e 60 115
e 60 116
e 60 119
e 60 122
e 60 124
e 60 127
e 60 129
e 60 130
e 60 132
e 60 133
e 60 136
e 60 142
e 60 145
e 60 149
e 60 150
e 61 66
e 61 68
e 61 70
e 61 71
e 61 72
e 61 75
e 61 76
e 61 77
e 61 78
e 61 79
e 61 80
e 61 82
e 61 84
e 61 92
e 61 95
e 61 97
e 61 100
e 61 112
e 61 115
e 61 116
e 61 119
e 61 120
e 61 122
e 61 127
e 61 131
e 61 132
e 61 136
e 61 141
e 61 144
e 61 145
e 61 146
e 61 150
e 62 63
e 62 67
e 62 75
e 62 77
e 62 78
e 62 83
e 62 84
e 62 87
e 62 89
e 62 91
e 62 94
e 62 96
e 62 99
e 62 100
e 62 102
e 62 103
e 62 104
e 62 106
e 62 108
e 62 111
e 62 118
e 62 119
e 62 120
e 62 122
e 62 123
e 62 124
e 62 127
e 62 129
e 62 138
e 62 140
e 62 141
e 62 144
e 62 145
e 62 148
e 62 150
e 63 65
e 63 66
e 63 69
e 63 76
e 63 80
e 63 81
e 63 82
e 63 83
e 63 85
e 63 87
e 63 90
e 63 92
e 63 94
e 63 96
e 63 99
e 63 101
e 63 103
e 63 107
e 63 109
e 63 110
e 63 111
e 63 112
e 63 113
e 63 117
e 63 118
e 63 119
e 63 129
e 63 131
e 63 134
e 63 135
e 63 136
e 63 137
e 63 139
e 63 140
e 63 143
e 63 148
e 63 149
e 64 68
e 64 70
e 64 71
e 64 78
e 64 79
e 64 81
e 64 82
e 64 84
e 64 85
e 64 92
e 64 93
e 64 95
e 64 97
e 64 98
e 64 102
e 64 106
e 64 111
e 64 112
e 64 115
e 64 116
e 64 117
e 64 118
e 64 122
e 64 123
e 64 125
e 64 127
e 64 130
e 64 137
e 64 138
e 64 140
e 64 141
e 64 143
e 64 148
e 65 67
e 65 70
e 65 74
e 65 76
e 65 80
e 65 81
e 65 86
e 65 87
e 65 91
e 65 93
e 65 95
e 65 96
e 65 98
e 65 99
e 65 100
e 65 102
e 65 111
e 65 116
e 65 118
e 65 122
e 65 125
e 65 130
e 65 131
e 65 133
e 65 136
e 65 137
e 65 138
e 65 141
e 66 68
e 66 69
e 66 70
e 66 71
e 66 72
e 66 73
e 66 74
e 66 75
e 66 80
e 66 81
e 66 86
e 66 87
e 66 91
e 66 92
e 66 94
e 66 101
e 66 102
e 66 106
e 66 109
e 66 110
e 66 114
e 66 116
e 66 117
e 66 119
e 66 120
e 66 121
e 66 123
e 66 125
e 66 126
e 66 127
e 66 129
e 66 130
e 66 132
e 66 134
e 66 135
e 66 136
e 66 139
e 66 140
e 66 144
e 66 149
e 67 68
e 67 71
e 67 72
e 67 74
e 67 76
e 67 77
e 67 79
e 67 83
e 67 84
e 67 86
e 67 87
e 67 90
e 67 93
e 67 99
e 67 102
e 67 103
e 67 104
e 67 111
e 67 113
e 67 117
e 67 118
e 67 120
e 67 121
e 67 122
e 67 127
e 67 128
e 67 138
e 67 143
e 67 144
e 67 147
e 67 148
e 67 150
e 68 70
e 68 75
e 68 76
e 68 78
e 68 79
e 68 80
e 68 81
e 68 83
e 68 88
e 68 89
e 68 97
e 68 98
e 68 105
e 68 111
e 68 112
e 68 115
e 68 117
e 68 119
e 68 121
e 68 122
e 68 124
e 68 125
e 68 126
e 68 127
e 68 128
e 68 130
e 68 131
e 68 132
e 68 133
e 68 135
e 68 136
e 68 138
e 68 140
e 68 142
e 68 143
e 68 144
e 68 146
e 68 147
e 68 149
e 69 70
e 69 71
e 69 72
e 69 79
e 69 81
e 69 83
e 69 84
e 69 87
e 69 90
e 69 91
e 69 98
e 69 101
e 69 103
e 69 105
e 69 106
e 69 112
e 69 116
e 69 119
e 69 120
e 69 121
e 69 122
e 69 125
e 69 126
e 69 129
e 69 130
e 69 132
e 69 133
e 69 138
e 69 140
e 69 142
e 69 143
e 69 144
e 69 146
e 69 147
e 69 148
e 70 74
e 70 77
e 70 78
e 70 79
e 70 80
e 70 82
e 70 84
e 70 87
e 70 88
e 70 92
e 70 93
e 70 94
e 70 95
e 70 98
e 70 99
e 70 104
e 70 105
e 70 110
e 70 112
e 70 120
e 70 126
e 70 130
e 70 134
e 70 137
e 70 144
e 70 145
e 70 146
e 70 147
e 71 73
e 71 74
e 71 75
e 71 82
e 71 84
e 71 85
e 71 87
e 71 88
e 71 91
e 71 97
e 71 98
e 71 100
e 71 102
e 71 104
e 71 105
e 71 111
e 71 115
e 71 116
e 71 117
e 71 118
e 71 122
e 71 125
e 71 126
e 71 129
e 71 130
e 71 131
e 71 133
e 71 134
e 71 140
e 71 143
e 71 145
e 71 147
e 71 149
e 72 77
e 72 78
e 72 81
e 72 88
e 72 90
e 72 92
e 72 95
e 72 97
e 72 105
e 72 106
e 72 109
e 72 111
e 72 113
e 72 118
e 72 125
e 72 128
e 72 129
e 72 132
e 72 134
e 72 139
e 72 140
e 72 142
e 72 144
e 72 146
e 72 149
e 73 74
e 73 75
e 73 76
e 73 78
e 73 81
e 73 83
e 73 85
e 73 88
e 73 90
e 73 91
e 73 92
e 73 93
e 73 94
e 73 100
e 73 103
e 73 105
e 73 107
e 73 109
e 73 112
e 73 113
e 73 116
e 73 117
e 73 126
e 73 127
e 73 128
e 73 129
e 73 130
e 73 132
e 73 133
e 73 134
e 73 135
e 73 136
e 73 138
e 73 142
e 73 143
e 73 146
e 73 149
e 74 76
e 74 78
e 74 80
e 74 81
e 74 85
e 74 86
e 74 87
e 74 88
e 74 90
e 74 92
e 74 95
e 74 97
e 74 101
e 74 102
e 74 103
e 74 104
e 74 109
e 74 112
e 74 114
e 74 115
e 74 116
e 74 117
e 74 119
e 74 121
e 74 123
e 74 124
e 74 125
e 74 131
e 74 137
e 74 140
e 74 143
e 74 144
e 74 150
e 75 76
e 75 77
e 75 78
e 75 79
e 75 81
e 75 85
e 75 86
e 75 93
e 75 97
e 75 102
e 75 106
e 75 109
e 75 113
e 75 114
e 75 118
e 75 119
e 75 125
e 75 126
e 75 128
e 75 133
e 75 135
e 75 137
e 75 138
e 75 139
e 75 142
e 75 147
e 75 149
e 76 79
e 76 80
e 76 81
e 76 83
e 76 84
e 76 85
e 76 89
e 76 92
e 76 93
e 76 94
e 76 96
e 76 99
e 76 100
e 76 102
e 76 107
e 76 112
e 76 114
e 76 115
e 76 117
e 76 121
e 76 123
e 76 130
e 76 131
e 76 132
e 76 134
e 76 135
e 76 139
e 76 141
e 76 144
e 76 148
e 77 80
e 77 83
e 77 84
e 77 85
e 77 86
e 77 87
e 77 90
e 77 92
e 77 93
e 77 94
e 77 96
e 77 101
e 77 102
e 77 103
e 77 104
e 77 108
e 77 112
e 77 115
e 77 120
e 77 121
e 77 124
e 77 128
e 77 129
e 77 133
e 77 136
e 77 137
e 77 140
e 77 142
e 77 146
e 77 147
e 78 79
e 78 83
e 78 84
e 78 85
e 78 86
e 78 92
e 78 95
e 78 96
e 78 103
e 78 106
e 78 110
e 78 111
e 78 112
e 78 114
e 78 116
e 78 118
e 78 119
e 78 121
e 78 123
e 78 125
e 78 128
e 78 129
e 78 134
e 78 135
e 78 138
e 78 139
e 78 140
e 78 146
e 78 150
e 79 80
e 79 81
e 79 85
e 79 86
e 79 87
e 79 90
e 79 92
e 79 97
e 79 99
e 79 100
e 79 101
e 79 102
e 79 103
e 79 106
e 79 107
e 79 109
e 79 112
e 79 113
e 79 114
e 79 115
e 79 116
e 79 119
e 79 120
e 79 123
e 79 124
e 79 126
e 79 133
e 79 135
e 79 138
e 79 139
e 79 140
e 79 147
e 80 81
e 80 84
e 80 85
e 80 88
e 80 91
e 80 95
e 80 100
e 80 104
e 80 105
e 80 107
e 80 110
e 80 113
e 80 118
e 80 119
e 80 123
e 80 126
e 80 128
e 80 131
e 80 133
e 80 134
e 80 136
e 80 139
e 80 140
e 80 141
e 80 142
e 80 144
e 80 145
e 80 147
e 80 149
e 81 84
e 81 85
e 81 87
e 81 88
e 81 89
e 81 91
e 81 92
e 81 97
e 81 99
e 81 100
e 81 101
e 81 102
e 81 105
e 81 108
e 81 109
e 81 110
e 81 111
e 81 114
e 81 119
e 81 120
e 81 121
e 81 123
e 81 126
e 81 127
e 81 129
e 81 132
e 81 137
e 81 141
e 81 145
e 81 148
e 81 150
e 82 85
e 82 86
e 82 91
e 82 94
e 82 95
e 82 96
e 82 98
e 82 99
e 82 105
e 82 109
e 82 110
e 82 111
e 82 115
e 82 116
e 82 117
e 82 132
e 82 135
e 82 137
e 82 138
e 82 143
e 82 145
e 82 146
e 82 149
e 83 84
e 83 85
e 83 86
e 83 89
e 83 90
e 83 93
e 83 95
e 83 96
e 83 99
e 83 102
e 83 103
e 83 107
e 83 109
e 83 110
e 83 111
e 83 113
e 83 114
e 83 115
e 83 120
e 83 121
e 83 125
e 83 128
e 83 130
e 83 133
e 83 135
e 83 138
e 83 140
e 83 141
e 83 145
e 83 146
e 83 147
e 84 92
e 84 94
e 84 97
e 84 102
e 84 104
e 84 105
e 84 110
e 84 111
e 84 112
e 84 116
e 84 117
e 84 118
e 84 119
e 84 126
e 84 130
e 84 134
e 84 135
e 84 136
e 84 137
e 84 146
e 84 147
e 85 86
e 85 88
e 85 89
e 85 90
e 85 92
e 85 94
e 85 98
e 85 100
e 85 105
e 85 108
e 85 111
e 85 114
e 85 115
e 85 122
e 85 123
e 85 124
e 85 128
e 85 133
e 85 140
e 85 148
e 85 149
e 85 150
e 86 87
e 86 91
e 86 92
e 86 94
e 86 101
e 86 102
e 86 103
e 86 104
e 86 105
e 86 106
e 86 107
e 86 110
e 86 111
e 86 113
e 86 116
e 86 118
e 86 123
e 86 125
e 86 126
e 86 128
e 86 129
e 86 131
e 86 135
e 86 137
e 86 142
e 86 146
e 86 147
e 86 148
e 86 150
e 87 88
e 87 89
e 87 90
e 87 91
e 87 93
e 87 97
e 87 100
e 87 102
e 87 103
e 87 108
e 87 110
e 87 111
e 87 115
e 87 116
e 87 120
e 87 121
e 87 127
e 87 130
e 87 133
e 87 134
e 87 137
e 87 138
e 87 140
e 87 142
e 87 144
e 87 146
e 87 147
e 87 150
e 88 94
e 88 96
e 88 105
e 88 110
e 88 114
e 88 115
e 88 117
e 88 120
e 88 121
e 88 123
e 88 127
e 88 131
e 88 136
e 88 140
e 88 142
e 88 143
e 88 144
e 88 146
e 88 148
e 88 149
e 89 91
e 89 92
e 89 98
e 89 100
e 89 101
e 89 104
e 89 105
e 89 107
e 89 109
e 89 110
e 89 113
e 89 116
e 89 123
e 89 124
e 89 125
e 89 132
e 89 138
e 89 140
e 89 146
e 89 150
e 90 91
e 90 93
e 90 95
e 90 96
e 90 98
e 90 102
e 90 104
e 90 107
e 90 109
e 90 111
e 90 114
e 90 115
e 90 118
e 90 122
e 90 125
e 90 126
e 90 129
e 90 130
e 90 136
e 90 138
e 90 144
e 91 95
e 91 96
e 91 98
e 91 100
e 91 101
e 91 102
e 91 103
e 91 104
e 91 105
e 91 113
e 91 115
e 91 116
e 91 120
e 91 123
e 91 125
e 91 126
e 91 127
e 91 130
e 91 132
e 91 133
e 91 136
e 91 138
e 91 144
e 91 147
e 91 150
e 92 94
e 92 96
e 92 97
e 92 100
e 92 105
e 92 106
e 92 108
e 92 109
e 92 110
e 92 113
e 92 123
e 92 124
e 92 125
e 92 127
e 92 130
e 92 131
e 92 132
e 92 136
e 92 140
e 92 141
e 92 142
e 92 144
e 92 147
e 92 148
e 92 150
e 93 95
e 93 97
e 93 101
e 93 102
e 93 105
e 93 106
e 93 110
e 93 111
e 93 116
e 93 119
e 93 121
e 93 125
e 93 127
e 93 129
e 93 130
e 93 134
e 93 135
e 93 137
e 93 138
e 93 139
e 93 149
e 94 100
e 94 102
e 94 103
e 94 104
e 94 106
e 94 108
e 94 111
e 94 112
e 94 116
e 94 117
e 94 124
e 94 125
e 94 130
e 94 134
e 94 139
e 94 144
e 94 145
e 94 146
e 94 149
e 94 150
e 95 96
e 95 98
e 95 101
e 95 102
e 95 103
e 95 104
e 95 110
e 95 115
e 95 116
e 95 117
e 95 121
e 95 122
e 95 123
e 95 124
e 95 125
e 95 127
e 95 128
e 95 129
e 95 131
e 95 132
e 95 133
e 95 138
e 95 143
e 95 147
e 95 148
e 95 150
e 96 99
e 96 102
e 96 103
e 96 104
e 96 106
e 96 107
e 96 109
e 96 110
e 96 111
e 96 112
e 96 114
e 96 116
e 96 117
e 96 118
e 96 119
e 96 122
e 96 123
e 96 124
e 96 125
e 96 126
e 96 129
e 96 130
e 96 132
e 96 133
e 96 137
e 96 138
e 96 145
e 96 146
e 96 147
e 96 150
e 97 98
e 97 101
e 97 102
e 97 104
e 97 113
e 97 114
e 97 115
e 97 117
e 97 118
e 97 134
e 97 140
e 97 143
e 97 146
e 98 101
e 98 103
e 98 108
e 98 109
e 98 117
e 98 120
e 98 123
e 98 126
e 98 133
e 98 135
e 98 137
e 98 142
e 98 143
e 98 144
e 98 149
e 99 102
e 99 103
e 99 104
e 99 106
e 99 107
e 99 110
e 99 115
e 99 117
e 99 122
e 99 126
e 99 128
e 99 129
e 99 130
e 99 132
e 99 133
e 99 136
e 99 139
e 99 140
e 99 148
e 99 149
e 100 103
e 100 104
e 100 106
e 100 109
e 100 110
e 100 111
e 100 117
e 100 119
e 100 120
e 100 121
e 100 123
e 100 125
e 100 128
e 100 130
e 100 131
e 100 132
e 100 133
e 100 135
e 100 136
e 100 140
e 100 141
e 100 144
e 100 145
e 100 147
e 100 148
e 100 150
e 101 102
e 101 106
e 101 107
e 101 109
e 101 110
e 101 112
e 101 116
e 101 117
e 101 123
e 101 126
e 101 128
e 101 130
e 101 132
e 101 134
e 101 139
e 101 141
e 101 147
e 101 149
e 101 150
e 102 104
e 102 108
e 102 113
e 102 119
e 102 130
e 102 131
e 102 133
e 102 136
e 102 139
e 102 140
e 102 144
e 102 145
e 102 148
e 102 150
e 103 104
e 103 107
e 103 108
e 103 109
e 103 111
e 103 112
e 103 117
e 103 120
e 103 122
e 103 124
e 103 129
e 103 132
e 103 133
e 103 135
e 103 138
e 103 142
e 103 143
e 103 145
e 103 146
e 103 147
e 103 148
e 103 149
e 104 105
e 104 107
e 104 109
e 104 114
e 104 120
e 104 122
e 104 127
e 104 130
e 104 131
e 104 132
e 104 133
e 104 140
e 104 141
e 104 146
e 104 147
e 104 148
e 104 149
e 104 150
e 105 107
e 105 108
e 105 109
e 105 115
e 105 116
e 105 122
e 105 126
e 105 128
e 105 130
e 105 131
e 105 132
e 105 135
e 105 136
e 105 141
e 105 145
e 105 146
e 106 107
e 106 109
e 106 112
e 106 113
e 106 120
e 106 125
e 106 131
e 106 135
e 106 137
e 106 144
e 107 109
e 107 110
e 107 111
e 107 113
e 107 114
e 107 117
e 107 118
e 107 119
e 107 124
e 107 130
e 107 137
e 107 139
e 107 140
e 107 141
e 107 142
e 107 143
e 107 147
e 108 110
e 108 113
e 108 115
e 108 122
e 108 126
e 108 129
e 108 135
e 108 137
e 108 138
e 108 139
e 108 142
e 108 143
e 108 144
e 108 145
e 108 148
e 109 110
e 109 113
e 109 115
e 109 118
e 109 119
e 109 120
e 109 121
e 109 122
e 109 129
e 109 131
e 109 132
e 109 136
e 109 138
e 109 140
e 109 142
e 109 145
e 109 146
e 109 147
e 109 149
e 109 150
e 110 113
e 110 115
e 110 116
e 110 117
e 110 118
e 110 119
e 110 120
e 110 122
e 110 131
e 110 132
e 110 133
e 110 134
e 110 135
e 110 140
e 110 141
e 110 142
e 110 143
e 110 145
e 110 146
e 110 148
e 110 149
e 110 150
e 111 112
e 111 115
e 111 117
e 111 122
e 111 123
e 111 126
e 111 128
e 111 129
e 111 133
e 111 137
e 111 138
e 111 141
e 111 142
e 111 143
e 111 144
e 111 146
e 111 150
e 112 114
e 112 119
e 112 122
e 112 123
e 112 126
e 112 131
e 112 133
e 112 134
e 112 138
e 112 139
e 112 140
e 112 141
e 112 142
e 112 146
e 112 147
e 112 150
e 113 116
e 113 120
e 113 125
e 113 129
e 113 133
e 113 137
e 113 138
e 113 145
e 113 150
e 114 119
e 114 122
e 114 123
e 114 124
e 114 125
e 114 126
e 114 128
e 114 132
e 114 133
e 114 134
e 114 137
e 114 138
e 114 140
e 114 144
e 114 147
e 114 148
e 114 149
e 115 116
e 115 117
e 115 119
e 115 121
e 115 124
e 115 126
e 115 128
e 115 129
e 115 131
e 115 136
e 115 139
e 115 141
e 115 142
e 115 145
e 115 146
e 115 147
e 115 149
e 116 123
e 116 125
e 116 126
e 116 127
e 116 129
e 116 130
e 116 131
e 116 134
e 116 138
e 116 142
e 116 143
e 116 144
e 116 145
e 116 146
e 116 148
e 116 149
e 117 120
e 117 121
e 117 122
e 117 131
e 117 133
e 117 136
e 117 137
e 117 138
e 117 140
e 117 144
e 118 119
e 118 120
e 118 125
e 118 126
e 118 128
e 118 131
e 118 132
e 118 136
e 118 137
e 118 138
e 118 140
e 118 142
e 118 145
e 118 146
e 118 149
e 119 123
e 119 126
e 119 131
e 119 135
e 119 136
e 119 138
e 119 140
e 119 141
e 119 142
e 119 144
e 119 146
e 119 147
e 119 149
e 119 150
e 120 123
e 120 124
e 120 126
e 120 134
e 120 135
e 120 136
e 120 139
e 120 147
e 121 128
e 121 129
e 121 130
e 121 131
e 121 135
e 121 136
e 121 138
e 121 143
e 121 144
e 121 146
e 121 147
e 122 123
e 122 124
e 122 129
e 122 132
e 122 135
e 122 136
e 122 139
e 122 143
e 122 148
e 123 126
e 123 134
e 123 136
e 123 142
e 123 147
e 123 148
e 124 125
e 124 126
e 124 127
e 124 130
e 124 132
e 124 133
e 124 135
e 124 136
e 124 140
e 124 141
e 124 142
e 124 147
e 125 127
e 125 128
e 125 129
e 125 134
e 125 135
e 125 138
e 125 140
e 125 142
e 125 144
e 125 145
e 125 146
e 125 147
e 125 148
e 125 150
e 126 127
e 126 130
e 126 137
e 126 138
e 126 140
e 126 142
e 126 146
e 127 132
e 127 136
e 127 137
e 127 138
e 127 142
e 127 147
e 127 148
e 127 150
e 128 129
e 128 130
e 128 131
e 128 132
e 128 133
e 128 134
e 128 138
e 128 139
e 128 145
e 128 148
e 128 149
e 129 130
e 129 131
e 129 132
e 129 136
e 129 138
e 129 139
e 129 142
e 129 144
e 129 145
e 129 146
e 129 147
e 129 148
e 130 133
e 130 136
e 130 139
e 130 144
e 130 150
e 131 133
e 131 134
e 131 135
e 131 141
e 131 142
e 131 143
e 131 149
e 131 150
e 132 135
e 132 136
e 132 139
e 132 140
e 132 147
e 132 148
e 133 134
e 133 135
e 133 138
e 133 144
e 133 146
e 133 148
e 133 149
e 134 136
e 134 138
e 134 139
e 134 142
e 134 143
e 134 147
e 134 148
e 135 138
e 135 140
e 135 143
e 135 145
e 135 146
e 135 147
e 135 149
e 136 137
e 136 138
e 136 140
e 136 147
e 136 148
e 136 149
e 137 138
e 137 139
e 137 140
e 137 143
e 137 145
e 137 146
e 137 147
e 137 150
e 138 141
e 138 144
e 138 145
e 139 141
e 139 142
e 139 144
e 139 145
e 139 147
e 139 148
e 139 150
e 140 141
e 140 150
e 141 142
e 141 144
e 141 148
e 142 144
e 142 149
e 143 145
e 143 146
e 143 147
e 143 148
e 143 149
e 143 150
e 144 147
e 144 148
e 144 149
e 145 146
e 145 148
e 145 149
e 145 150
e 146 147
e 146 149
e 146 150
e 147 148
e 147 149
e 148 149
e 148 150
